p cnf 430 1488
-191 49 0
-191 -176 0
-191 82 0
-191 123 0
-191 170 0
191 -49 176 -82 -123 -170 0
-192 -62 0
-192 177 0
-192 155 0
-192 67 0
-192 32 0
192 62 -177 -155 -67 -32 0
-193 -121 0
-193 -3 0
-193 -70 0
-193 175 0
-193 -67 0
193 121 3 70 -175 67 0
-194 127 0
-194 18 0
-194 -182 0
-194 131 0
-194 69 0
194 -127 -18 182 -131 -69 0
-195 46 0
-195 -116 0
-195 26 0
-195 56 0
-195 -104 0
195 -46 116 -26 -56 104 0
191 192 193 194 195 0
-196 -29 0
-196 -96 0
-196 147 0
-196 -167 0
-196 172 0
196 29 96 -147 167 -172 0
-197 -100 0
-197 173 0
-197 18 0
-197 101 0
-197 143 0
197 100 -173 -18 -101 -143 0
-198 32 0
-198 -129 0
-198 -139 0
-198 19 0
-198 -119 0
198 -32 129 139 -19 119 0
-199 -186 0
-199 -59 0
-199 101 0
-199 2 0
-199 145 0
199 186 59 -101 -2 -145 0
-200 -180 0
-200 -104 0
-200 35 0
-200 -69 0
-200 173 0
200 180 104 -35 69 -173 0
196 197 198 199 200 0
-201 -18 0
-201 48 0
-201 69 0
-201 -111 0
-201 -29 0
201 18 -48 -69 111 29 0
-202 -29 0
-202 62 0
-202 -15 0
-202 -122 0
-202 185 0
202 29 -62 15 122 -185 0
-203 -70 0
-203 -179 0
-203 -150 0
-203 -35 0
-203 -8 0
203 70 179 150 35 8 0
-204 -141 0
-204 1 0
-204 -35 0
-204 56 0
-204 20 0
204 141 -1 35 -56 -20 0
-205 -71 0
-205 79 0
-205 -68 0
-205 -118 0
-205 -123 0
205 71 -79 68 118 123 0
201 202 203 204 205 0
-206 -76 0
-206 132 0
-206 -27 0
-206 169 0
-206 94 0
206 76 -132 27 -169 -94 0
-207 -82 0
-207 45 0
-207 -93 0
-207 106 0
-207 -49 0
207 82 -45 93 -106 49 0
-208 178 0
-208 -157 0
-208 85 0
-208 46 0
-208 -36 0
208 -178 157 -85 -46 36 0
-209 135 0
-209 94 0
-209 121 0
-209 -158 0
-209 -27 0
209 -135 -94 -121 158 27 0
-210 -1 0
-210 -57 0
-210 41 0
-210 90 0
-210 116 0
210 1 57 -41 -90 -116 0
206 207 208 209 210 0
-211 137 0
-211 89 0
-211 -171 0
-211 -157 0
-211 11 0
211 -137 -89 171 157 -11 0
-212 69 0
-212 -189 0
-212 19 0
-212 -15 0
-212 166 0
212 -69 189 -19 15 -166 0
-213 174 0
-213 47 0
-213 -190 0
-213 -130 0
-213 23 0
213 -174 -47 190 130 -23 0
-214 -118 0
-214 55 0
-214 -145 0
-214 -138 0
-214 27 0
214 118 -55 145 138 -27 0
-215 105 0
-215 -26 0
-215 38 0
-215 -133 0
-215 149 0
215 -105 26 -38 133 -149 0
211 212 213 214 215 0
-216 154 0
-216 50 0
-216 69 0
-216 99 0
-216 85 0
216 -154 -50 -69 -99 -85 0
-217 132 0
-217 -76 0
-217 87 0
-217 114 0
-217 44 0
217 -132 76 -87 -114 -44 0
-218 62 0
-218 101 0
-218 -127 0
-218 150 0
-218 -17 0
218 -62 -101 127 -150 17 0
-219 110 0
-219 118 0
-219 -111 0
-219 57 0
-219 23 0
219 -110 -118 111 -57 -23 0
-220 -17 0
-220 178 0
-220 -107 0
-220 -36 0
-220 -61 0
220 17 -178 107 36 61 0
216 217 218 219 220 0
-221 -182 0
-221 -157 0
-221 -163 0
-221 178 0
-221 -113 0
221 182 157 163 -178 113 0
-222 -139 0
-222 -45 0
-222 -158 0
-222 -116 0
-222 -163 0
222 139 45 158 116 163 0
-223 88 0
-223 -30 0
-223 -100 0
-223 114 0
-223 -12 0
223 -88 30 100 -114 12 0
-224 -113 0
-224 -66 0
-224 -142 0
-224 -118 0
-224 -161 0
224 113 66 142 118 161 0
-225 -32 0
-225 22 0
-225 106 0
-225 9 0
-225 -178 0
225 32 -22 -106 -9 178 0
221 222 223 224 225 0
-226 -140 0
-226 15 0
-226 87 0
-226 181 0
-226 173 0
226 140 -15 -87 -181 -173 0
-227 -125 0
-227 126 0
-227 -148 0
-227 116 0
-227 89 0
227 125 -126 148 -116 -89 0
-228 -6 0
-228 -147 0
-228 -155 0
-228 128 0
-228 -10 0
228 6 147 155 -128 10 0
-229 -27 0
-229 -140 0
-229 167 0
-229 122 0
-229 -48 0
229 27 140 -167 -122 48 0
-230 -89 0
-230 -132 0
-230 -41 0
-230 121 0
-230 24 0
230 89 132 41 -121 -24 0
226 227 228 229 230 0
-231 -136 0
-231 128 0
-231 125 0
-231 -190 0
-231 -73 0
231 136 -128 -125 190 73 0
-232 177 0
-232 -20 0
-232 -145 0
-232 -18 0
-232 152 0
232 -177 20 145 18 -152 0
-233 184 0
-233 98 0
-233 -23 0
-233 64 0
-233 -89 0
233 -184 -98 23 -64 89 0
-234 -190 0
-234 72 0
-234 9 0
-234 86 0
-234 -64 0
234 190 -72 -9 -86 64 0
-235 -1 0
-235 52 0
-235 190 0
-235 -100 0
-235 84 0
235 1 -52 -190 100 -84 0
231 232 233 234 235 0
-236 -175 0
-236 -3 0
-236 -81 0
-236 -94 0
-236 -56 0
236 175 3 81 94 56 0
-237 27 0
-237 -190 0
-237 -121 0
-237 110 0
-237 -12 0
237 -27 190 121 -110 12 0
-238 134 0
-238 146 0
-238 98 0
-238 -83 0
-238 171 0
238 -134 -146 -98 83 -171 0
-239 182 0
-239 -84 0
-239 58 0
-239 76 0
-239 3 0
239 -182 84 -58 -76 -3 0
-240 -185 0
-240 92 0
-240 46 0
-240 153 0
-240 24 0
240 185 -92 -46 -153 -24 0
236 237 238 239 240 0
-241 -30 0
-241 -144 0
-241 149 0
-241 58 0
-241 -141 0
241 30 144 -149 -58 141 0
-242 66 0
-242 -52 0
-242 -56 0
-242 -137 0
-242 2 0
242 -66 52 56 137 -2 0
-243 -48 0
-243 -39 0
-243 -41 0
-243 52 0
-243 111 0
243 48 39 41 -52 -111 0
-244 189 0
-244 -166 0
-244 -143 0
-244 86 0
-244 120 0
244 -189 166 143 -86 -120 0
-245 -44 0
-245 26 0
-245 10 0
-245 41 0
-245 -32 0
245 44 -26 -10 -41 32 0
241 242 243 244 245 0
-246 95 0
-246 -118 0
-246 -164 0
-246 28 0
-246 -41 0
246 -95 118 164 -28 41 0
-247 106 0
-247 88 0
-247 164 0
-247 103 0
-247 -141 0
247 -106 -88 -164 -103 141 0
-248 35 0
-248 -164 0
-248 149 0
-248 28 0
-248 -132 0
248 -35 164 -149 -28 132 0
-249 55 0
-249 136 0
-249 -132 0
-249 -144 0
-249 65 0
249 -55 -136 132 144 -65 0
-250 148 0
-250 -55 0
-250 1 0
-250 12 0
-250 162 0
250 -148 55 -1 -12 -162 0
246 247 248 249 250 0
-251 146 0
-251 -169 0
-251 42 0
-251 112 0
-251 102 0
251 -146 169 -42 -112 -102 0
-252 29 0
-252 -115 0
-252 107 0
-252 186 0
-252 78 0
252 -29 115 -107 -186 -78 0
-253 181 0
-253 -59 0
-253 -68 0
-253 67 0
-253 -71 0
253 -181 59 68 -67 71 0
-254 -101 0
-254 179 0
-254 -89 0
-254 -171 0
-254 183 0
254 101 -179 89 171 -183 0
-255 155 0
-255 -25 0
-255 -164 0
-255 -80 0
-255 103 0
255 -155 25 164 80 -103 0
251 252 253 254 255 0
-256 145 0
-256 19 0
-256 -40 0
-256 -105 0
-256 93 0
256 -145 -19 40 105 -93 0
-257 185 0
-257 -109 0
-257 -186 0
-257 20 0
-257 -50 0
257 -185 109 186 -20 50 0
-258 143 0
-258 144 0
-258 41 0
-258 -152 0
-258 139 0
258 -143 -144 -41 152 -139 0
-259 -84 0
-259 116 0
-259 -135 0
-259 -1 0
-259 -146 0
259 84 -116 135 1 146 0
-260 -5 0
-260 42 0
-260 -26 0
-260 -90 0
-260 -35 0
260 5 -42 26 90 35 0
256 257 258 259 260 0
-261 99 0
-261 -135 0
-261 36 0
-261 -23 0
-261 103 0
261 -99 135 -36 23 -103 0
-262 148 0
-262 32 0
-262 -140 0
-262 -120 0
-262 62 0
262 -148 -32 140 120 -62 0
-263 -175 0
-263 -163 0
-263 -45 0
-263 56 0
-263 -115 0
263 175 163 45 -56 115 0
-264 99 0
-264 153 0
-264 135 0
-264 -139 0
-264 -38 0
264 -99 -153 -135 139 38 0
-265 -174 0
-265 -156 0
-265 9 0
-265 147 0
-265 30 0
265 174 156 -9 -147 -30 0
261 262 263 264 265 0
-266 161 0
-266 -45 0
-266 168 0
-266 -40 0
-266 -33 0
266 -161 45 -168 40 33 0
-267 159 0
-267 165 0
-267 113 0
-267 96 0
-267 -134 0
267 -159 -165 -113 -96 134 0
-268 82 0
-268 -30 0
-268 -117 0
-268 31 0
-268 -1 0
268 -82 30 117 -31 1 0
-269 156 0
-269 149 0
-269 118 0
-269 25 0
-269 -95 0
269 -156 -149 -118 -25 95 0
-270 -63 0
-270 -136 0
-270 -72 0
-270 120 0
-270 -97 0
270 63 136 72 -120 97 0
266 267 268 269 270 0
-271 -10 0
-271 -188 0
-271 -164 0
-271 -97 0
-271 -179 0
271 10 188 164 97 179 0
-272 -23 0
-272 123 0
-272 121 0
-272 87 0
-272 94 0
272 23 -123 -121 -87 -94 0
-273 59 0
-273 79 0
-273 -82 0
-273 99 0
-273 -97 0
273 -59 -79 82 -99 97 0
-274 119 0
-274 110 0
-274 189 0
-274 -172 0
-274 -173 0
274 -119 -110 -189 172 173 0
-275 146 0
-275 -47 0
-275 -58 0
-275 -36 0
-275 -118 0
275 -146 47 58 36 118 0
271 272 273 274 275 0
-276 -11 0
-276 -18 0
-276 142 0
-276 169 0
-276 -174 0
276 11 18 -142 -169 174 0
-277 -158 0
-277 -6 0
-277 122 0
-277 -9 0
-277 77 0
277 158 6 -122 9 -77 0
-278 151 0
-278 -131 0
-278 27 0
-278 138 0
-278 -186 0
278 -151 131 -27 -138 186 0
-279 169 0
-279 -158 0
-279 129 0
-279 -3 0
-279 -1 0
279 -169 158 -129 3 1 0
-280 125 0
-280 -78 0
-280 110 0
-280 -60 0
-280 -69 0
280 -125 78 -110 60 69 0
276 277 278 279 280 0
-281 86 0
-281 92 0
-281 -131 0
-281 -151 0
-281 -55 0
281 -86 -92 131 151 55 0
-282 -6 0
-282 -167 0
-282 -28 0
-282 50 0
-282 2 0
282 6 167 28 -50 -2 0
-283 -46 0
-283 -162 0
-283 81 0
-283 -175 0
-283 97 0
283 46 162 -81 175 -97 0
-284 54 0
-284 173 0
-284 55 0
-284 -159 0
-284 87 0
284 -54 -173 -55 159 -87 0
-285 -171 0
-285 169 0
-285 47 0
-285 -2 0
-285 116 0
285 171 -169 -47 2 -116 0
281 282 283 284 285 0
-286 -156 0
-286 -108 0
-286 35 0
-286 84 0
-286 163 0
286 156 108 -35 -84 -163 0
-287 59 0
-287 106 0
-287 68 0
-287 -121 0
-287 -153 0
287 -59 -106 -68 121 153 0
-288 -158 0
-288 -109 0
-288 3 0
-288 103 0
-288 -76 0
288 158 109 -3 -103 76 0
-289 -162 0
-289 -10 0
-289 161 0
-289 67 0
-289 128 0
289 162 10 -161 -67 -128 0
-290 132 0
-290 119 0
-290 -25 0
-290 115 0
-290 167 0
290 -132 -119 25 -115 -167 0
286 287 288 289 290 0
-291 85 0
-291 -14 0
-291 58 0
-291 -121 0
-291 114 0
291 -85 14 -58 121 -114 0
-292 -162 0
-292 -124 0
-292 -36 0
-292 -176 0
-292 -108 0
292 162 124 36 176 108 0
-293 -101 0
-293 9 0
-293 44 0
-293 -68 0
-293 176 0
293 101 -9 -44 68 -176 0
-294 -45 0
-294 -31 0
-294 -182 0
-294 -121 0
-294 104 0
294 45 31 182 121 -104 0
-295 -71 0
-295 -2 0
-295 -143 0
-295 76 0
-295 -174 0
295 71 2 143 -76 174 0
291 292 293 294 295 0
-296 -178 0
-296 -104 0
-296 -109 0
-296 -143 0
-296 172 0
296 178 104 109 143 -172 0
-297 -161 0
-297 -42 0
-297 34 0
-297 -143 0
-297 -31 0
297 161 42 -34 143 31 0
-298 -162 0
-298 43 0
-298 -127 0
-298 -68 0
-298 77 0
298 162 -43 127 68 -77 0
-299 123 0
-299 -30 0
-299 -160 0
-299 -146 0
-299 -156 0
299 -123 30 160 146 156 0
-300 -156 0
-300 31 0
-300 51 0
-300 12 0
-300 174 0
300 156 -31 -51 -12 -174 0
296 297 298 299 300 0
-301 55 0
-301 109 0
-301 -144 0
-301 162 0
-301 136 0
301 -55 -109 144 -162 -136 0
-302 160 0
-302 34 0
-302 74 0
-302 20 0
-302 146 0
302 -160 -34 -74 -20 -146 0
-303 -107 0
-303 -24 0
-303 -161 0
-303 -123 0
-303 166 0
303 107 24 161 123 -166 0
-304 156 0
-304 -6 0
-304 -14 0
-304 180 0
-304 45 0
304 -156 6 14 -180 -45 0
-305 114 0
-305 133 0
-305 176 0
-305 52 0
-305 -115 0
305 -114 -133 -176 -52 115 0
301 302 303 304 305 0
-306 106 0
-306 27 0
-306 84 0
-306 -50 0
-306 32 0
306 -106 -27 -84 50 -32 0
-307 -182 0
-307 101 0
-307 -171 0
-307 -169 0
-307 156 0
307 182 -101 171 169 -156 0
-308 -179 0
-308 167 0
-308 70 0
-308 106 0
-308 -86 0
308 179 -167 -70 -106 86 0
-309 79 0
-309 162 0
-309 -159 0
-309 -167 0
-309 -183 0
309 -79 -162 159 167 183 0
-310 156 0
-310 -130 0
-310 43 0
-310 -39 0
-310 179 0
310 -156 130 -43 39 -179 0
306 307 308 309 310 0
-311 -177 0
-311 25 0
-311 -171 0
-311 46 0
-311 -16 0
311 177 -25 171 -46 16 0
-312 -38 0
-312 177 0
-312 -29 0
-312 147 0
-312 78 0
312 38 -177 29 -147 -78 0
-313 -102 0
-313 184 0
-313 -50 0
-313 104 0
-313 21 0
313 102 -184 50 -104 -21 0
-314 -56 0
-314 -55 0
-314 24 0
-314 27 0
-314 -34 0
314 56 55 -24 -27 34 0
-315 148 0
-315 -75 0
-315 -71 0
-315 -146 0
-315 -123 0
315 -148 75 71 146 123 0
311 312 313 314 315 0
-316 33 0
-316 8 0
-316 148 0
-316 138 0
-316 -155 0
316 -33 -8 -148 -138 155 0
-317 -40 0
-317 -90 0
-317 -79 0
-317 54 0
-317 87 0
317 40 90 79 -54 -87 0
-318 -125 0
-318 -15 0
-318 42 0
-318 105 0
-318 187 0
318 125 15 -42 -105 -187 0
-319 156 0
-319 48 0
-319 -184 0
-319 3 0
-319 163 0
319 -156 -48 184 -3 -163 0
-320 -64 0
-320 -55 0
-320 -143 0
-320 -25 0
-320 16 0
320 64 55 143 25 -16 0
316 317 318 319 320 0
-321 -108 0
-321 53 0
-321 85 0
-321 -109 0
-321 22 0
321 108 -53 -85 109 -22 0
-322 -22 0
-322 -104 0
-322 86 0
-322 181 0
-322 -35 0
322 22 104 -86 -181 35 0
-323 159 0
-323 -42 0
-323 179 0
-323 146 0
-323 -184 0
323 -159 42 -179 -146 184 0
-324 28 0
-324 6 0
-324 -132 0
-324 129 0
-324 -61 0
324 -28 -6 132 -129 61 0
-325 -132 0
-325 19 0
-325 -91 0
-325 30 0
-325 -160 0
325 132 -19 91 -30 160 0
321 322 323 324 325 0
-326 -9 0
-326 -21 0
-326 -39 0
-326 -7 0
-326 -19 0
326 9 21 39 7 19 0
-327 -54 0
-327 -143 0
-327 -82 0
-327 -190 0
-327 86 0
327 54 143 82 190 -86 0
-328 -137 0
-328 -160 0
-328 189 0
-328 -150 0
-328 114 0
328 137 160 -189 150 -114 0
-329 118 0
-329 -99 0
-329 -139 0
-329 15 0
-329 152 0
329 -118 99 139 -15 -152 0
-330 -190 0
-330 -153 0
-330 98 0
-330 130 0
-330 -40 0
330 190 153 -98 -130 40 0
326 327 328 329 330 0
-331 -50 0
-331 5 0
-331 190 0
-331 -179 0
-331 115 0
331 50 -5 -190 179 -115 0
-332 -71 0
-332 70 0
-332 89 0
-332 104 0
-332 -165 0
332 71 -70 -89 -104 165 0
-333 -31 0
-333 143 0
-333 -157 0
-333 171 0
-333 -105 0
333 31 -143 157 -171 105 0
-334 37 0
-334 176 0
-334 22 0
-334 -89 0
-334 119 0
334 -37 -176 -22 89 -119 0
-335 -189 0
-335 -158 0
-335 161 0
-335 170 0
-335 136 0
335 189 158 -161 -170 -136 0
331 332 333 334 335 0
-336 150 0
-336 163 0
-336 -79 0
-336 4 0
-336 41 0
336 -150 -163 79 -4 -41 0
-337 -51 0
-337 -145 0
-337 -190 0
-337 -148 0
-337 29 0
337 51 145 190 148 -29 0
-338 -37 0
-338 -148 0
-338 31 0
-338 -116 0
-338 14 0
338 37 148 -31 116 -14 0
-339 -134 0
-339 187 0
-339 37 0
-339 -95 0
-339 -26 0
339 134 -187 -37 95 26 0
-340 -175 0
-340 71 0
-340 3 0
-340 152 0
-340 117 0
340 175 -71 -3 -152 -117 0
336 337 338 339 340 0
-341 -143 0
-341 -10 0
-341 170 0
-341 -164 0
-341 92 0
341 143 10 -170 164 -92 0
-342 -188 0
-342 -109 0
-342 -160 0
-342 -106 0
-342 -57 0
342 188 109 160 106 57 0
-343 185 0
-343 117 0
-343 -135 0
-343 11 0
-343 -72 0
343 -185 -117 135 -11 72 0
-344 108 0
-344 120 0
-344 35 0
-344 125 0
-344 102 0
344 -108 -120 -35 -125 -102 0
-345 -174 0
-345 63 0
-345 43 0
-345 147 0
-345 -44 0
345 174 -63 -43 -147 44 0
341 342 343 344 345 0
-346 36 0
-346 -53 0
-346 101 0
-346 -88 0
-346 171 0
346 -36 53 -101 88 -171 0
-347 -190 0
-347 -94 0
-347 -149 0
-347 -6 0
-347 171 0
347 190 94 149 6 -171 0
-348 -74 0
-348 178 0
-348 22 0
-348 -95 0
-348 -189 0
348 74 -178 -22 95 189 0
-349 -52 0
-349 142 0
-349 -66 0
-349 -94 0
-349 -21 0
349 52 -142 66 94 21 0
-350 -32 0
-350 33 0
-350 -185 0
-350 67 0
-350 99 0
350 32 -33 185 -67 -99 0
346 347 348 349 350 0
-351 -140 0
-351 112 0
-351 -109 0
-351 4 0
-351 -10 0
351 140 -112 109 -4 10 0
-352 151 0
-352 152 0
-352 123 0
-352 -188 0
-352 -55 0
352 -151 -152 -123 188 55 0
-353 49 0
-353 12 0
-353 121 0
-353 24 0
-353 69 0
353 -49 -12 -121 -24 -69 0
-354 96 0
-354 11 0
-354 189 0
-354 -101 0
-354 166 0
354 -96 -11 -189 101 -166 0
-355 66 0
-355 62 0
-355 159 0
-355 -186 0
-355 -57 0
355 -66 -62 -159 186 57 0
351 352 353 354 355 0
-356 62 0
-356 -157 0
-356 -26 0
-356 -69 0
-356 -20 0
356 -62 157 26 69 20 0
-357 -156 0
-357 -124 0
-357 14 0
-357 -98 0
-357 3 0
357 156 124 -14 98 -3 0
-358 32 0
-358 -49 0
-358 -52 0
-358 95 0
-358 -137 0
358 -32 49 52 -95 137 0
-359 -59 0
-359 -97 0
-359 -58 0
-359 -57 0
-359 -12 0
359 59 97 58 57 12 0
-360 -123 0
-360 -47 0
-360 50 0
-360 162 0
-360 181 0
360 123 47 -50 -162 -181 0
356 357 358 359 360 0
-361 -189 0
-361 -78 0
-361 -52 0
-361 129 0
-361 157 0
361 189 78 52 -129 -157 0
-362 -155 0
-362 158 0
-362 -143 0
-362 51 0
-362 108 0
362 155 -158 143 -51 -108 0
-363 50 0
-363 -154 0
-363 183 0
-363 144 0
-363 -133 0
363 -50 154 -183 -144 133 0
-364 -100 0
-364 -130 0
-364 172 0
-364 80 0
-364 -124 0
364 100 130 -172 -80 124 0
-365 182 0
-365 -71 0
-365 151 0
-365 117 0
-365 72 0
365 -182 71 -151 -117 -72 0
361 362 363 364 365 0
-366 -38 0
-366 142 0
-366 -63 0
-366 149 0
-366 -124 0
366 38 -142 63 -149 124 0
-367 95 0
-367 -152 0
-367 77 0
-367 -76 0
-367 -41 0
367 -95 152 -77 76 41 0
-368 -101 0
-368 -61 0
-368 -51 0
-368 -28 0
-368 -138 0
368 101 61 51 28 138 0
-369 -144 0
-369 86 0
-369 -128 0
-369 84 0
-369 8 0
369 144 -86 128 -84 -8 0
-370 121 0
-370 -113 0
-370 148 0
-370 1 0
-370 130 0
370 -121 113 -148 -1 -130 0
366 367 368 369 370 0
-371 -61 0
-371 31 0
-371 58 0
-371 -11 0
-371 172 0
371 61 -31 -58 11 -172 0
-372 50 0
-372 -65 0
-372 138 0
-372 -108 0
-372 -103 0
372 -50 65 -138 108 103 0
-373 78 0
-373 180 0
-373 85 0
-373 -80 0
-373 73 0
373 -78 -180 -85 80 -73 0
-374 92 0
-374 -54 0
-374 15 0
-374 -85 0
-374 -147 0
374 -92 54 -15 85 147 0
-375 -41 0
-375 143 0
-375 110 0
-375 178 0
-375 70 0
375 41 -143 -110 -178 -70 0
371 372 373 374 375 0
-376 -52 0
-376 -140 0
-376 -157 0
-376 -84 0
-376 87 0
376 52 140 157 84 -87 0
-377 -98 0
-377 79 0
-377 187 0
-377 -33 0
-377 87 0
377 98 -79 -187 33 -87 0
-378 2 0
-378 88 0
-378 -168 0
-378 11 0
-378 26 0
378 -2 -88 168 -11 -26 0
-379 97 0
-379 -167 0
-379 96 0
-379 -162 0
-379 -73 0
379 -97 167 -96 162 73 0
-380 172 0
-380 -85 0
-380 -113 0
-380 -8 0
-380 -174 0
380 -172 85 113 8 174 0
376 377 378 379 380 0
-381 -77 0
-381 -76 0
-381 -187 0
-381 132 0
-381 -9 0
381 77 76 187 -132 9 0
-382 -180 0
-382 -175 0
-382 95 0
-382 151 0
-382 -43 0
382 180 175 -95 -151 43 0
-383 -46 0
-383 183 0
-383 101 0
-383 80 0
-383 -22 0
383 46 -183 -101 -80 22 0
-384 82 0
-384 -41 0
-384 63 0
-384 64 0
-384 -127 0
384 -82 41 -63 -64 127 0
-385 -4 0
-385 56 0
-385 31 0
-385 -151 0
-385 117 0
385 4 -56 -31 151 -117 0
381 382 383 384 385 0
-386 -16 0
-386 -56 0
-386 -190 0
-386 80 0
-386 124 0
386 16 56 190 -80 -124 0
-387 12 0
-387 -28 0
-387 -145 0
-387 -78 0
-387 146 0
387 -12 28 145 78 -146 0
-388 133 0
-388 -115 0
-388 -15 0
-388 65 0
-388 31 0
388 -133 115 15 -65 -31 0
-389 56 0
-389 -121 0
-389 -182 0
-389 102 0
-389 -53 0
389 -56 121 182 -102 53 0
-390 -14 0
-390 -155 0
-390 105 0
-390 -95 0
-390 6 0
390 14 155 -105 95 -6 0
386 387 388 389 390 0
-391 -2 0
-391 88 0
-391 -26 0
-391 98 0
-391 -56 0
391 2 -88 26 -98 56 0
-392 169 0
-392 64 0
-392 -76 0
-392 119 0
-392 174 0
392 -169 -64 76 -119 -174 0
-393 114 0
-393 75 0
-393 25 0
-393 -63 0
-393 99 0
393 -114 -75 -25 63 -99 0
-394 159 0
-394 31 0
-394 -100 0
-394 -183 0
-394 -123 0
394 -159 -31 100 183 123 0
-395 -117 0
-395 90 0
-395 54 0
-395 -105 0
-395 -12 0
395 117 -90 -54 105 12 0
391 392 393 394 395 0
-396 174 0
-396 94 0
-396 17 0
-396 -134 0
-396 -60 0
396 -174 -94 -17 134 60 0
-397 145 0
-397 -52 0
-397 64 0
-397 33 0
-397 -13 0
397 -145 52 -64 -33 13 0
-398 -43 0
-398 -65 0
-398 -17 0
-398 89 0
-398 2 0
398 43 65 17 -89 -2 0
-399 17 0
-399 144 0
-399 57 0
-399 -122 0
-399 171 0
399 -17 -144 -57 122 -171 0
-400 65 0
-400 -83 0
-400 188 0
-400 190 0
-400 -113 0
400 -65 83 -188 -190 113 0
396 397 398 399 400 0
-401 -149 0
-401 90 0
-401 120 0
-401 35 0
-401 166 0
401 149 -90 -120 -35 -166 0
-402 81 0
-402 72 0
-402 -103 0
-402 23 0
-402 -34 0
402 -81 -72 103 -23 34 0
-403 4 0
-403 170 0
-403 2 0
-403 -189 0
-403 43 0
403 -4 -170 -2 189 -43 0
-404 23 0
-404 186 0
-404 -151 0
-404 87 0
-404 -5 0
404 -23 -186 151 -87 5 0
-405 176 0
-405 48 0
-405 -66 0
-405 148 0
-405 1 0
405 -176 -48 66 -148 -1 0
401 402 403 404 405 0
-406 -180 0
-406 -109 0
-406 -96 0
-406 162 0
-406 87 0
406 180 109 96 -162 -87 0
-407 107 0
-407 -74 0
-407 -29 0
-407 -189 0
-407 -13 0
407 -107 74 29 189 13 0
-408 117 0
-408 -109 0
-408 -40 0
-408 101 0
-408 -159 0
408 -117 109 40 -101 159 0
-409 -71 0
-409 145 0
-409 -28 0
-409 17 0
-409 12 0
409 71 -145 28 -17 -12 0
-410 105 0
-410 -134 0
-410 -141 0
-410 5 0
-410 -50 0
410 -105 134 141 -5 50 0
406 407 408 409 410 0
-411 110 0
-411 -12 0
-411 33 0
-411 -139 0
-411 -135 0
411 -110 12 -33 139 135 0
-412 -23 0
-412 -15 0
-412 -71 0
-412 7 0
-412 -59 0
412 23 15 71 -7 59 0
-413 -21 0
-413 -141 0
-413 80 0
-413 -148 0
-413 105 0
413 21 141 -80 148 -105 0
-414 -102 0
-414 20 0
-414 89 0
-414 189 0
-414 57 0
414 102 -20 -89 -189 -57 0
-415 -116 0
-415 15 0
-415 -98 0
-415 -22 0
-415 18 0
415 116 -15 98 22 -18 0
411 412 413 414 415 0
-416 -143 0
-416 52 0
-416 140 0
-416 -159 0
-416 -40 0
416 143 -52 -140 159 40 0
-417 169 0
-417 151 0
-417 -63 0
-417 165 0
-417 -45 0
417 -169 -151 63 -165 45 0
-418 35 0
-418 -72 0
-418 115 0
-418 5 0
-418 70 0
418 -35 72 -115 -5 -70 0
-419 -43 0
-419 -169 0
-419 -188 0
-419 -156 0
-419 -19 0
419 43 169 188 156 19 0
-420 -84 0
-420 -158 0
-420 -40 0
-420 77 0
-420 -42 0
420 84 158 40 -77 42 0
416 417 418 419 420 0
-421 80 0
-421 185 0
-421 -75 0
-421 106 0
-421 -42 0
421 -80 -185 75 -106 42 0
-422 -144 0
-422 -46 0
-422 -8 0
-422 -80 0
-422 -25 0
422 144 46 8 80 25 0
-423 106 0
-423 28 0
-423 -61 0
-423 39 0
-423 44 0
423 -106 -28 61 -39 -44 0
-424 -160 0
-424 -171 0
-424 74 0
-424 149 0
-424 94 0
424 160 171 -74 -149 -94 0
-425 45 0
-425 -11 0
-425 97 0
-425 -23 0
-425 -29 0
425 -45 11 -97 23 29 0
421 422 423 424 425 0
-426 71 0
-426 121 0
-426 -20 0
-426 -115 0
-426 73 0
426 -71 -121 20 115 -73 0
-427 66 0
-427 13 0
-427 119 0
-427 -110 0
-427 44 0
427 -66 -13 -119 110 -44 0
-428 114 0
-428 -88 0
-428 183 0
-428 3 0
-428 97 0
428 -114 88 -183 -3 -97 0
-429 -171 0
-429 160 0
-429 -92 0
-429 -122 0
-429 119 0
429 171 -160 92 122 -119 0
-430 -188 0
-430 -157 0
-430 -65 0
-430 -67 0
-430 -103 0
430 188 157 65 67 103 0
426 427 428 429 430 0
